c *********************************
c * Circuit generated by BenCGen
c *
c * RippleCarryAdder_21_21_21_InOutT
c *
c * Ports with 1 gate(s): 1
c * Ports with 2 gate(s): 106
c * Total gates: 107
c *********************************
p cnf 149 362
1 66 0
-1 -66 0
1 -65 0
66 -65 0
-1 -66 65 0
1 22 -68 0
-1 22 68 0
1 -22 68 0
-1 -22 -68 0
68 65 -43 0
-68 65 43 0
68 -65 43 0
-68 -65 -43 0
65 -69 0
68 -69 0
-65 -68 69 0
22 -70 0
1 -70 0
-22 -1 70 0
-69 67 0
-70 67 0
69 70 -67 0
2 23 -72 0
-2 23 72 0
2 -23 72 0
-2 -23 -72 0
72 67 -44 0
-72 67 44 0
72 -67 44 0
-72 -67 -44 0
67 -73 0
72 -73 0
-67 -72 73 0
23 -74 0
2 -74 0
-23 -2 74 0
-73 71 0
-74 71 0
73 74 -71 0
3 24 -76 0
-3 24 76 0
3 -24 76 0
-3 -24 -76 0
76 71 -45 0
-76 71 45 0
76 -71 45 0
-76 -71 -45 0
71 -77 0
76 -77 0
-71 -76 77 0
24 -78 0
3 -78 0
-24 -3 78 0
-77 75 0
-78 75 0
77 78 -75 0
4 25 -80 0
-4 25 80 0
4 -25 80 0
-4 -25 -80 0
80 75 -46 0
-80 75 46 0
80 -75 46 0
-80 -75 -46 0
75 -81 0
80 -81 0
-75 -80 81 0
25 -82 0
4 -82 0
-25 -4 82 0
-81 79 0
-82 79 0
81 82 -79 0
5 26 -84 0
-5 26 84 0
5 -26 84 0
-5 -26 -84 0
84 79 -47 0
-84 79 47 0
84 -79 47 0
-84 -79 -47 0
79 -85 0
84 -85 0
-79 -84 85 0
26 -86 0
5 -86 0
-26 -5 86 0
-85 83 0
-86 83 0
85 86 -83 0
6 27 -88 0
-6 27 88 0
6 -27 88 0
-6 -27 -88 0
88 83 -48 0
-88 83 48 0
88 -83 48 0
-88 -83 -48 0
83 -89 0
88 -89 0
-83 -88 89 0
27 -90 0
6 -90 0
-27 -6 90 0
-89 87 0
-90 87 0
89 90 -87 0
7 28 -92 0
-7 28 92 0
7 -28 92 0
-7 -28 -92 0
92 87 -49 0
-92 87 49 0
92 -87 49 0
-92 -87 -49 0
87 -93 0
92 -93 0
-87 -92 93 0
28 -94 0
7 -94 0
-28 -7 94 0
-93 91 0
-94 91 0
93 94 -91 0
8 29 -96 0
-8 29 96 0
8 -29 96 0
-8 -29 -96 0
96 91 -50 0
-96 91 50 0
96 -91 50 0
-96 -91 -50 0
91 -97 0
96 -97 0
-91 -96 97 0
29 -98 0
8 -98 0
-29 -8 98 0
-97 95 0
-98 95 0
97 98 -95 0
9 30 -100 0
-9 30 100 0
9 -30 100 0
-9 -30 -100 0
100 95 -51 0
-100 95 51 0
100 -95 51 0
-100 -95 -51 0
95 -101 0
100 -101 0
-95 -100 101 0
30 -102 0
9 -102 0
-30 -9 102 0
-101 99 0
-102 99 0
101 102 -99 0
10 31 -104 0
-10 31 104 0
10 -31 104 0
-10 -31 -104 0
104 99 -52 0
-104 99 52 0
104 -99 52 0
-104 -99 -52 0
99 -105 0
104 -105 0
-99 -104 105 0
31 -106 0
10 -106 0
-31 -10 106 0
-105 103 0
-106 103 0
105 106 -103 0
11 32 -108 0
-11 32 108 0
11 -32 108 0
-11 -32 -108 0
108 103 -53 0
-108 103 53 0
108 -103 53 0
-108 -103 -53 0
103 -109 0
108 -109 0
-103 -108 109 0
32 -110 0
11 -110 0
-32 -11 110 0
-109 107 0
-110 107 0
109 110 -107 0
12 33 -112 0
-12 33 112 0
12 -33 112 0
-12 -33 -112 0
112 107 -54 0
-112 107 54 0
112 -107 54 0
-112 -107 -54 0
107 -113 0
112 -113 0
-107 -112 113 0
33 -114 0
12 -114 0
-33 -12 114 0
-113 111 0
-114 111 0
113 114 -111 0
13 34 -116 0
-13 34 116 0
13 -34 116 0
-13 -34 -116 0
116 111 -55 0
-116 111 55 0
116 -111 55 0
-116 -111 -55 0
111 -117 0
116 -117 0
-111 -116 117 0
34 -118 0
13 -118 0
-34 -13 118 0
-117 115 0
-118 115 0
117 118 -115 0
14 35 -120 0
-14 35 120 0
14 -35 120 0
-14 -35 -120 0
120 115 -56 0
-120 115 56 0
120 -115 56 0
-120 -115 -56 0
115 -121 0
120 -121 0
-115 -120 121 0
35 -122 0
14 -122 0
-35 -14 122 0
-121 119 0
-122 119 0
121 122 -119 0
15 36 -124 0
-15 36 124 0
15 -36 124 0
-15 -36 -124 0
124 119 -57 0
-124 119 57 0
124 -119 57 0
-124 -119 -57 0
119 -125 0
124 -125 0
-119 -124 125 0
36 -126 0
15 -126 0
-36 -15 126 0
-125 123 0
-126 123 0
125 126 -123 0
16 37 -128 0
-16 37 128 0
16 -37 128 0
-16 -37 -128 0
128 123 -58 0
-128 123 58 0
128 -123 58 0
-128 -123 -58 0
123 -129 0
128 -129 0
-123 -128 129 0
37 -130 0
16 -130 0
-37 -16 130 0
-129 127 0
-130 127 0
129 130 -127 0
17 38 -132 0
-17 38 132 0
17 -38 132 0
-17 -38 -132 0
132 127 -59 0
-132 127 59 0
132 -127 59 0
-132 -127 -59 0
127 -133 0
132 -133 0
-127 -132 133 0
38 -134 0
17 -134 0
-38 -17 134 0
-133 131 0
-134 131 0
133 134 -131 0
18 39 -136 0
-18 39 136 0
18 -39 136 0
-18 -39 -136 0
136 131 -60 0
-136 131 60 0
136 -131 60 0
-136 -131 -60 0
131 -137 0
136 -137 0
-131 -136 137 0
39 -138 0
18 -138 0
-39 -18 138 0
-137 135 0
-138 135 0
137 138 -135 0
19 40 -140 0
-19 40 140 0
19 -40 140 0
-19 -40 -140 0
140 135 -61 0
-140 135 61 0
140 -135 61 0
-140 -135 -61 0
135 -141 0
140 -141 0
-135 -140 141 0
40 -142 0
19 -142 0
-40 -19 142 0
-141 139 0
-142 139 0
141 142 -139 0
20 41 -144 0
-20 41 144 0
20 -41 144 0
-20 -41 -144 0
144 139 -62 0
-144 139 62 0
144 -139 62 0
-144 -139 -62 0
139 -145 0
144 -145 0
-139 -144 145 0
41 -146 0
20 -146 0
-41 -20 146 0
-145 143 0
-146 143 0
145 146 -143 0
21 42 -147 0
-21 42 147 0
21 -42 147 0
-21 -42 -147 0
147 143 -63 0
-147 143 63 0
147 -143 63 0
-147 -143 -63 0
143 -148 0
147 -148 0
-143 -147 148 0
42 -149 0
21 -149 0
-42 -21 149 0
-148 64 0
-149 64 0
148 149 -64 0
